; benchmark generated from python API
(set-info :status unknown)
(declare-fun p_1_10_1 () Int)
(declare-fun p_1_9_2 () Int)
(declare-fun p_1_8_3 () Int)
(declare-fun p_1_4_7 () Int)
(declare-fun p_1_5_6 () Int)
(declare-fun p_2_10_2 () Int)
(declare-fun p_2_1_3 () Int)
(declare-fun p_2_9_4 () Int)
(declare-fun p_2_5_8 () Int)
(declare-fun p_2_6_7 () Int)
(declare-fun p_3_10_3 () Int)
(declare-fun p_3_2_4 () Int)
(declare-fun p_3_1_5 () Int)
(declare-fun p_3_6_9 () Int)
(declare-fun p_3_7_8 () Int)
(declare-fun p_4_10_4 () Int)
(declare-fun p_4_3_5 () Int)
(declare-fun p_4_2_6 () Int)
(declare-fun p_4_7_1 () Int)
(declare-fun p_4_8_9 () Int)
(declare-fun p_5_10_5 () Int)
(declare-fun p_5_4_6 () Int)
(declare-fun p_5_3_7 () Int)
(declare-fun p_5_8_2 () Int)
(declare-fun p_5_9_1 () Int)
(declare-fun p_6_6_10 () Int)
(declare-fun p_6_5_7 () Int)
(declare-fun p_6_4_8 () Int)
(declare-fun p_6_9_3 () Int)
(declare-fun p_6_1_2 () Int)
(declare-fun p_7_7_10 () Int)
(declare-fun p_7_6_8 () Int)
(declare-fun p_7_5_9 () Int)
(declare-fun p_7_1_4 () Int)
(declare-fun p_7_2_3 () Int)
(declare-fun p_8_8_10 () Int)
(declare-fun p_8_7_9 () Int)
(declare-fun p_8_6_1 () Int)
(declare-fun p_8_2_5 () Int)
(declare-fun p_8_3_4 () Int)
(declare-fun p_9_9_10 () Int)
(declare-fun p_9_8_1 () Int)
(declare-fun p_9_7_2 () Int)
(declare-fun p_9_3_6 () Int)
(declare-fun p_9_4_5 () Int)
(assert
 (>= p_1_10_1 1))
(assert
 (<= p_1_10_1 5))
(assert
 (>= p_1_9_2 1))
(assert
 (<= p_1_9_2 5))
(assert
 (>= p_1_8_3 1))
(assert
 (<= p_1_8_3 5))
(assert
 (>= p_1_4_7 1))
(assert
 (<= p_1_4_7 5))
(assert
 (>= p_1_5_6 1))
(assert
 (<= p_1_5_6 5))
(assert
 (>= p_2_10_2 1))
(assert
 (<= p_2_10_2 5))
(assert
 (>= p_2_1_3 1))
(assert
 (<= p_2_1_3 5))
(assert
 (>= p_2_9_4 1))
(assert
 (<= p_2_9_4 5))
(assert
 (>= p_2_5_8 1))
(assert
 (<= p_2_5_8 5))
(assert
 (>= p_2_6_7 1))
(assert
 (<= p_2_6_7 5))
(assert
 (>= p_3_10_3 1))
(assert
 (<= p_3_10_3 5))
(assert
 (>= p_3_2_4 1))
(assert
 (<= p_3_2_4 5))
(assert
 (>= p_3_1_5 1))
(assert
 (<= p_3_1_5 5))
(assert
 (>= p_3_6_9 1))
(assert
 (<= p_3_6_9 5))
(assert
 (>= p_3_7_8 1))
(assert
 (<= p_3_7_8 5))
(assert
 (>= p_4_10_4 1))
(assert
 (<= p_4_10_4 5))
(assert
 (>= p_4_3_5 1))
(assert
 (<= p_4_3_5 5))
(assert
 (>= p_4_2_6 1))
(assert
 (<= p_4_2_6 5))
(assert
 (>= p_4_7_1 1))
(assert
 (<= p_4_7_1 5))
(assert
 (>= p_4_8_9 1))
(assert
 (<= p_4_8_9 5))
(assert
 (>= p_5_10_5 1))
(assert
 (<= p_5_10_5 5))
(assert
 (>= p_5_4_6 1))
(assert
 (<= p_5_4_6 5))
(assert
 (>= p_5_3_7 1))
(assert
 (<= p_5_3_7 5))
(assert
 (>= p_5_8_2 1))
(assert
 (<= p_5_8_2 5))
(assert
 (>= p_5_9_1 1))
(assert
 (<= p_5_9_1 5))
(assert
 (>= p_6_6_10 1))
(assert
 (<= p_6_6_10 5))
(assert
 (>= p_6_5_7 1))
(assert
 (<= p_6_5_7 5))
(assert
 (>= p_6_4_8 1))
(assert
 (<= p_6_4_8 5))
(assert
 (>= p_6_9_3 1))
(assert
 (<= p_6_9_3 5))
(assert
 (>= p_6_1_2 1))
(assert
 (<= p_6_1_2 5))
(assert
 (>= p_7_7_10 1))
(assert
 (<= p_7_7_10 5))
(assert
 (>= p_7_6_8 1))
(assert
 (<= p_7_6_8 5))
(assert
 (>= p_7_5_9 1))
(assert
 (<= p_7_5_9 5))
(assert
 (>= p_7_1_4 1))
(assert
 (<= p_7_1_4 5))
(assert
 (>= p_7_2_3 1))
(assert
 (<= p_7_2_3 5))
(assert
 (>= p_8_8_10 1))
(assert
 (<= p_8_8_10 5))
(assert
 (>= p_8_7_9 1))
(assert
 (<= p_8_7_9 5))
(assert
 (>= p_8_6_1 1))
(assert
 (<= p_8_6_1 5))
(assert
 (>= p_8_2_5 1))
(assert
 (<= p_8_2_5 5))
(assert
 (>= p_8_3_4 1))
(assert
 (<= p_8_3_4 5))
(assert
 (>= p_9_9_10 1))
(assert
 (<= p_9_9_10 5))
(assert
 (>= p_9_8_1 1))
(assert
 (<= p_9_8_1 5))
(assert
 (>= p_9_7_2 1))
(assert
 (<= p_9_7_2 5))
(assert
 (>= p_9_3_6 1))
(assert
 (<= p_9_3_6 5))
(assert
 (>= p_9_4_5 1))
(assert
 (<= p_9_4_5 5))
(assert
 (= p_1_4_7 1))
(assert
 (= p_1_5_6 2))
(assert
 (= p_1_8_3 3))
(assert
 (= p_1_9_2 4))
(assert
 (= p_1_10_1 5))
(assert
 (let (($x660 (= p_1_5_6 1)))
 (let (($x1589 (= p_1_4_7 1)))
 (let (($x1608 (= p_1_8_3 1)))
 (let (($x1616 (= p_1_9_2 1)))
 (let (($x1216 (= p_1_10_1 1)))
 ((_ pbeq 1 1 1 1 1 1) $x1216 $x1616 $x1608 $x1589 $x660)))))))
(assert
 (let (($x1286 (= p_1_5_6 2)))
 (let (($x1591 (= p_1_4_7 2)))
 (let (($x1612 (= p_1_8_3 2)))
 (let (($x91 (= p_1_9_2 2)))
 (let (($x7 (= p_1_10_1 2)))
 ((_ pbeq 1 1 1 1 1 1) $x7 $x91 $x1612 $x1591 $x1286)))))))
(assert
 (let (($x1225 (= p_1_5_6 3)))
 (let (($x29 (= p_1_4_7 3)))
 (let (($x1223 (= p_1_8_3 3)))
 (let (($x1592 (= p_1_9_2 3)))
 (let (($x1614 (= p_1_10_1 3)))
 ((_ pbeq 1 1 1 1 1 1) $x1614 $x1592 $x1223 $x29 $x1225)))))))
(assert
 (let (($x12 (= p_1_5_6 4)))
 (let (($x1594 (= p_1_4_7 4)))
 (let (($x1615 (= p_1_8_3 4)))
 (let (($x1604 (= p_1_9_2 4)))
 (let (($x32 (= p_1_10_1 4)))
 ((_ pbeq 1 1 1 1 1 1) $x32 $x1604 $x1615 $x1594 $x12)))))))
(assert
 (let (($x1333 (= p_1_5_6 5)))
 (let (($x1596 (= p_1_4_7 5)))
 (let (($x1624 (= p_1_8_3 5)))
 (let (($x1595 (= p_1_9_2 5)))
 (let (($x1590 (= p_1_10_1 5)))
 ((_ pbeq 1 1 1 1 1 1) $x1590 $x1595 $x1624 $x1596 $x1333)))))))
(assert
 (let (($x1600 (= p_2_6_7 1)))
 (let (($x1599 (= p_2_5_8 1)))
 (let (($x1598 (= p_2_9_4 1)))
 (let (($x1597 (= p_2_1_3 1)))
 (let (($x1249 (= p_2_10_2 1)))
 ((_ pbeq 1 1 1 1 1 1) $x1249 $x1597 $x1598 $x1599 $x1600)))))))
(assert
 (let (($x1611 (= p_2_6_7 2)))
 (let (($x1607 (= p_2_5_8 2)))
 (let (($x1603 (= p_2_9_4 2)))
 (let (($x1135 (= p_2_1_3 2)))
 (let (($x1276 (= p_2_10_2 2)))
 ((_ pbeq 1 1 1 1 1 1) $x1276 $x1135 $x1603 $x1607 $x1611)))))))
(assert
 (let (($x1627 (= p_2_6_7 3)))
 (let (($x1623 (= p_2_5_8 3)))
 (let (($x718 (= p_2_9_4 3)))
 (let (($x1154 (= p_2_1_3 3)))
 (let (($x1226 (= p_2_10_2 3)))
 ((_ pbeq 1 1 1 1 1 1) $x1226 $x1154 $x718 $x1623 $x1627)))))))
(assert
 (let (($x1639 (= p_2_6_7 4)))
 (let (($x1635 (= p_2_5_8 4)))
 (let (($x1630 (= p_2_9_4 4)))
 (let (($x1108 (= p_2_1_3 4)))
 (let (($x1180 (= p_2_10_2 4)))
 ((_ pbeq 1 1 1 1 1 1) $x1180 $x1108 $x1630 $x1635 $x1639)))))))
(assert
 (let (($x37 (= p_2_6_7 5)))
 (let (($x9 (= p_2_5_8 5)))
 (let (($x1145 (= p_2_9_4 5)))
 (let (($x1285 (= p_2_1_3 5)))
 (let (($x1352 (= p_2_10_2 5)))
 ((_ pbeq 1 1 1 1 1 1) $x1352 $x1285 $x1145 $x9 $x37)))))))
(assert
 (let (($x154 (= p_3_7_8 1)))
 (let (($x20 (= p_3_6_9 1)))
 (let (($x39 (= p_3_1_5 1)))
 (let (($x45 (= p_3_2_4 1)))
 (let (($x10 (= p_3_10_3 1)))
 ((_ pbeq 1 1 1 1 1 1) $x10 $x45 $x39 $x20 $x154)))))))
(assert
 (let (($x110 (= p_3_7_8 2)))
 (let (($x52 (= p_3_6_9 2)))
 (let (($x79 (= p_3_1_5 2)))
 (let (($x177 (= p_3_2_4 2)))
 (let (($x170 (= p_3_10_3 2)))
 ((_ pbeq 1 1 1 1 1 1) $x170 $x177 $x79 $x52 $x110)))))))
(assert
 (let (($x115 (= p_3_7_8 3)))
 (let (($x157 (= p_3_6_9 3)))
 (let (($x116 (= p_3_1_5 3)))
 (let (($x102 (= p_3_2_4 3)))
 (let (($x117 (= p_3_10_3 3)))
 ((_ pbeq 1 1 1 1 1 1) $x117 $x102 $x116 $x157 $x115)))))))
(assert
 (let (($x86 (= p_3_7_8 4)))
 (let (($x113 (= p_3_6_9 4)))
 (let (($x197 (= p_3_1_5 4)))
 (let (($x190 (= p_3_2_4 4)))
 (let (($x114 (= p_3_10_3 4)))
 ((_ pbeq 1 1 1 1 1 1) $x114 $x190 $x197 $x113 $x86)))))))
(assert
 (let (($x101 (= p_3_7_8 5)))
 (let (($x111 (= p_3_6_9 5)))
 (let (($x174 (= p_3_1_5 5)))
 (let (($x51 (= p_3_2_4 5)))
 (let (($x112 (= p_3_10_3 5)))
 ((_ pbeq 1 1 1 1 1 1) $x112 $x51 $x174 $x111 $x101)))))))
(assert
 (let (($x28 (= p_4_8_9 1)))
 (let (($x143 (= p_4_7_1 1)))
 (let (($x151 (= p_4_2_6 1)))
 (let (($x109 (= p_4_3_5 1)))
 (let (($x150 (= p_4_10_4 1)))
 ((_ pbeq 1 1 1 1 1 1) $x150 $x109 $x151 $x143 $x28)))))))
(assert
 (let (($x123 (= p_4_8_9 2)))
 (let (($x106 (= p_4_7_1 2)))
 (let (($x18 (= p_4_2_6 2)))
 (let (($x181 (= p_4_3_5 2)))
 (let (($x65 (= p_4_10_4 2)))
 ((_ pbeq 1 1 1 1 1 1) $x65 $x181 $x18 $x106 $x123)))))))
(assert
 (let (($x105 (= p_4_8_9 3)))
 (let (($x148 (= p_4_7_1 3)))
 (let (($x15 (= p_4_2_6 3)))
 (let (($x187 (= p_4_3_5 3)))
 (let (($x193 (= p_4_10_4 3)))
 ((_ pbeq 1 1 1 1 1 1) $x193 $x187 $x15 $x148 $x105)))))))
(assert
 (let (($x168 (= p_4_8_9 4)))
 (let (($x104 (= p_4_7_1 4)))
 (let (($x21 (= p_4_2_6 4)))
 (let (($x163 (= p_4_3_5 4)))
 (let (($x144 (= p_4_10_4 4)))
 ((_ pbeq 1 1 1 1 1 1) $x144 $x163 $x21 $x104 $x168)))))))
(assert
 (let (($x198 (= p_4_8_9 5)))
 (let (($x191 (= p_4_7_1 5)))
 (let (($x103 (= p_4_2_6 5)))
 (let (($x24 (= p_4_3_5 5)))
 (let (($x175 (= p_4_10_4 5)))
 ((_ pbeq 1 1 1 1 1 1) $x175 $x24 $x103 $x191 $x198)))))))
(assert
 (let (($x2617 (= p_5_9_1 1)))
 (let (($x2121 (= p_5_8_2 1)))
 (let (($x2095 (= p_5_3_7 1)))
 (let (($x2117 (= p_5_4_6 1)))
 (let (($x2086 (= p_5_10_5 1)))
 ((_ pbeq 1 1 1 1 1 1) $x2086 $x2117 $x2095 $x2121 $x2617)))))))
(assert
 (let (($x2611 (= p_5_9_1 2)))
 (let (($x2087 (= p_5_8_2 2)))
 (let (($x2097 (= p_5_3_7 2)))
 (let (($x2615 (= p_5_4_6 2)))
 (let (($x2113 (= p_5_10_5 2)))
 ((_ pbeq 1 1 1 1 1 1) $x2113 $x2615 $x2097 $x2087 $x2611)))))))
(assert
 (let (($x3215 (= p_5_9_1 3)))
 (let (($x3217 (= p_5_8_2 3)))
 (let (($x2954 (= p_5_3_7 3)))
 (let (($x2951 (= p_5_4_6 3)))
 (let (($x2953 (= p_5_10_5 3)))
 ((_ pbeq 1 1 1 1 1 1) $x2953 $x2951 $x2954 $x3217 $x3215)))))))
(assert
 (let (($x3065 (= p_5_9_1 4)))
 (let (($x4041 (= p_5_8_2 4)))
 (let (($x3468 (= p_5_3_7 4)))
 (let (($x3465 (= p_5_4_6 4)))
 (let (($x3467 (= p_5_10_5 4)))
 ((_ pbeq 1 1 1 1 1 1) $x3467 $x3465 $x3468 $x4041 $x3065)))))))
(assert
 (let (($x4037 (= p_5_9_1 5)))
 (let (($x4038 (= p_5_8_2 5)))
 (let (($x4039 (= p_5_3_7 5)))
 (let (($x4040 (= p_5_4_6 5)))
 (let (($x3066 (= p_5_10_5 5)))
 ((_ pbeq 1 1 1 1 1 1) $x3066 $x4040 $x4039 $x4038 $x4037)))))))
(assert
 (let (($x4031 (= p_6_1_2 1)))
 (let (($x4032 (= p_6_9_3 1)))
 (let (($x4033 (= p_6_4_8 1)))
 (let (($x4034 (= p_6_5_7 1)))
 (let (($x4035 (= p_6_6_10 1)))
 ((_ pbeq 1 1 1 1 1 1) $x4035 $x4034 $x4033 $x4032 $x4031)))))))
(assert
 (let (($x2815 (= p_6_1_2 2)))
 (let (($x2812 (= p_6_9_3 2)))
 (let (($x2814 (= p_6_4_8 2)))
 (let (($x4028 (= p_6_5_7 2)))
 (let (($x4029 (= p_6_6_10 2)))
 ((_ pbeq 1 1 1 1 1 1) $x4029 $x4028 $x2814 $x2812 $x2815)))))))
(assert
 (let (($x4025 (= p_6_1_2 3)))
 (let (($x4026 (= p_6_9_3 3)))
 (let (($x4027 (= p_6_4_8 3)))
 (let (($x3330 (= p_6_5_7 3)))
 (let (($x3327 (= p_6_6_10 3)))
 ((_ pbeq 1 1 1 1 1 1) $x3327 $x3330 $x4027 $x4026 $x4025)))))))
(assert
 (let (($x2075 (= p_6_1_2 4)))
 (let (($x2049 (= p_6_9_3 4)))
 (let (($x2071 (= p_6_4_8 4)))
 (let (($x2040 (= p_6_5_7 4)))
 (let (($x2039 (= p_6_6_10 4)))
 ((_ pbeq 1 1 1 1 1 1) $x2039 $x2040 $x2071 $x2049 $x2075)))))))
(assert
 (let (($x2596 (= p_6_1_2 5)))
 (let (($x2077 (= p_6_9_3 5)))
 (let (($x2050 (= p_6_4_8 5)))
 (let (($x2069 (= p_6_5_7 5)))
 (let (($x1993 (= p_6_6_10 5)))
 ((_ pbeq 1 1 1 1 1 1) $x1993 $x2069 $x2050 $x2077 $x2596)))))))
(assert
 (let (($x2594 (= p_7_2_3 1)))
 (let (($x2066 (= p_7_1_4 1)))
 (let (($x2595 (= p_7_5_9 1)))
 (let (($x2051 (= p_7_6_8 1)))
 (let (($x2597 (= p_7_7_10 1)))
 ((_ pbeq 1 1 1 1 1 1) $x2597 $x2051 $x2595 $x2066 $x2594)))))))
(assert
 (let (($x3052 (= p_7_2_3 2)))
 (let (($x3054 (= p_7_1_4 2)))
 (let (($x3051 (= p_7_5_9 2)))
 (let (($x2591 (= p_7_6_8 2)))
 (let (($x2592 (= p_7_7_10 2)))
 ((_ pbeq 1 1 1 1 1 1) $x2592 $x2591 $x3051 $x3054 $x3052)))))))
(assert
 (let (($x3447 (= p_7_2_3 3)))
 (let (($x3187 (= p_7_1_4 3)))
 (let (($x3184 (= p_7_5_9 3)))
 (let (($x3186 (= p_7_6_8 3)))
 (let (($x3183 (= p_7_7_10 3)))
 ((_ pbeq 1 1 1 1 1 1) $x3183 $x3186 $x3184 $x3187 $x3447)))))))
(assert
 (let (($x2899 (= p_7_2_3 4)))
 (let (($x2896 (= p_7_1_4 4)))
 (let (($x4023 (= p_7_5_9 4)))
 (let (($x3451 (= p_7_6_8 4)))
 (let (($x3448 (= p_7_7_10 4)))
 ((_ pbeq 1 1 1 1 1 1) $x3448 $x3451 $x4023 $x2896 $x2899)))))))
(assert
 (let (($x4019 (= p_7_2_3 5)))
 (let (($x4020 (= p_7_1_4 5)))
 (let (($x4021 (= p_7_5_9 5)))
 (let (($x4022 (= p_7_6_8 5)))
 (let (($x2900 (= p_7_7_10 5)))
 ((_ pbeq 1 1 1 1 1 1) $x2900 $x4022 $x4021 $x4020 $x4019)))))))
(assert
 (let (($x4013 (= p_8_3_4 1)))
 (let (($x4014 (= p_8_2_5 1)))
 (let (($x4015 (= p_8_6_1 1)))
 (let (($x4016 (= p_8_7_9 1)))
 (let (($x4017 (= p_8_8_10 1)))
 ((_ pbeq 1 1 1 1 1 1) $x4017 $x4016 $x4015 $x4014 $x4013)))))))
(assert
 (let (($x2765 (= p_8_3_4 2)))
 (let (($x2767 (= p_8_2_5 2)))
 (let (($x2764 (= p_8_6_1 2)))
 (let (($x4010 (= p_8_7_9 2)))
 (let (($x4011 (= p_8_8_10 2)))
 ((_ pbeq 1 1 1 1 1 1) $x4011 $x4010 $x2764 $x2767 $x2765)))))))
(assert
 (let (($x4009 (= p_8_3_4 3)))
 (let (($x3296 (= p_8_2_5 3)))
 (let (($x3293 (= p_8_6_1 3)))
 (let (($x3295 (= p_8_7_9 3)))
 (let (($x3292 (= p_8_8_10 3)))
 ((_ pbeq 1 1 1 1 1 1) $x3292 $x3295 $x3293 $x3296 $x4009)))))))
(assert
 (let (($x2029 (= p_8_3_4 4)))
 (let (($x2003 (= p_8_2_5 4)))
 (let (($x2025 (= p_8_6_1 4)))
 (let (($x1994 (= p_8_7_9 4)))
 (let (($x4007 (= p_8_8_10 4)))
 ((_ pbeq 1 1 1 1 1 1) $x4007 $x1994 $x2025 $x2003 $x2029)))))))
(assert
 (let (($x2578 (= p_8_3_4 5)))
 (let (($x2031 (= p_8_2_5 5)))
 (let (($x2004 (= p_8_6_1 5)))
 (let (($x2023 (= p_8_7_9 5)))
 (let (($x1947 (= p_8_8_10 5)))
 ((_ pbeq 1 1 1 1 1 1) $x1947 $x2023 $x2004 $x2031 $x2578)))))))
(assert
 (let (($x2576 (= p_9_4_5 1)))
 (let (($x2020 (= p_9_3_6 1)))
 (let (($x2577 (= p_9_7_2 1)))
 (let (($x2005 (= p_9_8_1 1)))
 (let (($x2579 (= p_9_9_10 1)))
 ((_ pbeq 1 1 1 1 1 1) $x2579 $x2005 $x2577 $x2020 $x2576)))))))
(assert
 (let (($x3017 (= p_9_4_5 2)))
 (let (($x3019 (= p_9_3_6 2)))
 (let (($x3016 (= p_9_7_2 2)))
 (let (($x2573 (= p_9_8_1 2)))
 (let (($x2574 (= p_9_9_10 2)))
 ((_ pbeq 1 1 1 1 1 1) $x2574 $x2573 $x3016 $x3019 $x3017)))))))
(assert
 (let (($x3412 (= p_9_4_5 3)))
 (let (($x3136 (= p_9_3_6 3)))
 (let (($x3133 (= p_9_7_2 3)))
 (let (($x3135 (= p_9_8_1 3)))
 (let (($x3132 (= p_9_9_10 3)))
 ((_ pbeq 1 1 1 1 1 1) $x3132 $x3135 $x3133 $x3136 $x3412)))))))
(assert
 (let (($x2871 (= p_9_4_5 4)))
 (let (($x2868 (= p_9_3_6 4)))
 (let (($x4006 (= p_9_7_2 4)))
 (let (($x3416 (= p_9_8_1 4)))
 (let (($x3413 (= p_9_9_10 4)))
 ((_ pbeq 1 1 1 1 1 1) $x3413 $x3416 $x4006 $x2868 $x2871)))))))
(assert
 (let (($x4002 (= p_9_4_5 5)))
 (let (($x4003 (= p_9_3_6 5)))
 (let (($x4004 (= p_9_7_2 5)))
 (let (($x4005 (= p_9_8_1 5)))
 (let (($x2872 (= p_9_9_10 5)))
 ((_ pbeq 1 1 1 1 1 1) $x2872 $x4005 $x4004 $x4003 $x4002)))))))
(assert
 (let (($x2005 (= p_9_8_1 1)))
 (let (($x4015 (= p_8_6_1 1)))
 (let (($x2066 (= p_7_1_4 1)))
 (let (($x4031 (= p_6_1_2 1)))
 (let (($x2617 (= p_5_9_1 1)))
 (let (($x143 (= p_4_7_1 1)))
 (let (($x39 (= p_3_1_5 1)))
 (let (($x1597 (= p_2_1_3 1)))
 (let (($x1216 (= p_1_10_1 1)))
 ((_ at-most 2) $x1216 $x1597 $x39 $x143 $x2617 $x4031 $x2066 $x4015 $x2005)))))))))))
(assert
 (let (($x2573 (= p_9_8_1 2)))
 (let (($x2764 (= p_8_6_1 2)))
 (let (($x3054 (= p_7_1_4 2)))
 (let (($x2815 (= p_6_1_2 2)))
 (let (($x2611 (= p_5_9_1 2)))
 (let (($x106 (= p_4_7_1 2)))
 (let (($x79 (= p_3_1_5 2)))
 (let (($x1135 (= p_2_1_3 2)))
 (let (($x7 (= p_1_10_1 2)))
 ((_ at-most 2) $x7 $x1135 $x79 $x106 $x2611 $x2815 $x3054 $x2764 $x2573)))))))))))
(assert
 (let (($x3135 (= p_9_8_1 3)))
 (let (($x3293 (= p_8_6_1 3)))
 (let (($x3187 (= p_7_1_4 3)))
 (let (($x4025 (= p_6_1_2 3)))
 (let (($x3215 (= p_5_9_1 3)))
 (let (($x148 (= p_4_7_1 3)))
 (let (($x116 (= p_3_1_5 3)))
 (let (($x1154 (= p_2_1_3 3)))
 (let (($x1614 (= p_1_10_1 3)))
 ((_ at-most 2) $x1614 $x1154 $x116 $x148 $x3215 $x4025 $x3187 $x3293 $x3135)))))))))))
(assert
 (let (($x3416 (= p_9_8_1 4)))
 (let (($x2025 (= p_8_6_1 4)))
 (let (($x2896 (= p_7_1_4 4)))
 (let (($x2075 (= p_6_1_2 4)))
 (let (($x3065 (= p_5_9_1 4)))
 (let (($x104 (= p_4_7_1 4)))
 (let (($x197 (= p_3_1_5 4)))
 (let (($x1108 (= p_2_1_3 4)))
 (let (($x32 (= p_1_10_1 4)))
 ((_ at-most 2) $x32 $x1108 $x197 $x104 $x3065 $x2075 $x2896 $x2025 $x3416)))))))))))
(assert
 (let (($x4005 (= p_9_8_1 5)))
 (let (($x2004 (= p_8_6_1 5)))
 (let (($x4020 (= p_7_1_4 5)))
 (let (($x2596 (= p_6_1_2 5)))
 (let (($x4037 (= p_5_9_1 5)))
 (let (($x191 (= p_4_7_1 5)))
 (let (($x174 (= p_3_1_5 5)))
 (let (($x1285 (= p_2_1_3 5)))
 (let (($x1590 (= p_1_10_1 5)))
 ((_ at-most 2) $x1590 $x1285 $x174 $x191 $x4037 $x2596 $x4020 $x2004 $x4005)))))))))))
(assert
 (let (($x2577 (= p_9_7_2 1)))
 (let (($x4014 (= p_8_2_5 1)))
 (let (($x2594 (= p_7_2_3 1)))
 (let (($x4031 (= p_6_1_2 1)))
 (let (($x2121 (= p_5_8_2 1)))
 (let (($x151 (= p_4_2_6 1)))
 (let (($x45 (= p_3_2_4 1)))
 (let (($x1249 (= p_2_10_2 1)))
 (let (($x1616 (= p_1_9_2 1)))
 ((_ at-most 2) $x1616 $x1249 $x45 $x151 $x2121 $x4031 $x2594 $x4014 $x2577)))))))))))
(assert
 (let (($x3016 (= p_9_7_2 2)))
 (let (($x2767 (= p_8_2_5 2)))
 (let (($x3052 (= p_7_2_3 2)))
 (let (($x2815 (= p_6_1_2 2)))
 (let (($x2087 (= p_5_8_2 2)))
 (let (($x18 (= p_4_2_6 2)))
 (let (($x177 (= p_3_2_4 2)))
 (let (($x1276 (= p_2_10_2 2)))
 (let (($x91 (= p_1_9_2 2)))
 ((_ at-most 2) $x91 $x1276 $x177 $x18 $x2087 $x2815 $x3052 $x2767 $x3016)))))))))))
(assert
 (let (($x3133 (= p_9_7_2 3)))
 (let (($x3296 (= p_8_2_5 3)))
 (let (($x3447 (= p_7_2_3 3)))
 (let (($x4025 (= p_6_1_2 3)))
 (let (($x3217 (= p_5_8_2 3)))
 (let (($x15 (= p_4_2_6 3)))
 (let (($x102 (= p_3_2_4 3)))
 (let (($x1226 (= p_2_10_2 3)))
 (let (($x1592 (= p_1_9_2 3)))
 ((_ at-most 2) $x1592 $x1226 $x102 $x15 $x3217 $x4025 $x3447 $x3296 $x3133)))))))))))
(assert
 (let (($x4006 (= p_9_7_2 4)))
 (let (($x2003 (= p_8_2_5 4)))
 (let (($x2899 (= p_7_2_3 4)))
 (let (($x2075 (= p_6_1_2 4)))
 (let (($x4041 (= p_5_8_2 4)))
 (let (($x21 (= p_4_2_6 4)))
 (let (($x190 (= p_3_2_4 4)))
 (let (($x1180 (= p_2_10_2 4)))
 (let (($x1604 (= p_1_9_2 4)))
 ((_ at-most 2) $x1604 $x1180 $x190 $x21 $x4041 $x2075 $x2899 $x2003 $x4006)))))))))))
(assert
 (let (($x4004 (= p_9_7_2 5)))
 (let (($x2031 (= p_8_2_5 5)))
 (let (($x4019 (= p_7_2_3 5)))
 (let (($x2596 (= p_6_1_2 5)))
 (let (($x4038 (= p_5_8_2 5)))
 (let (($x103 (= p_4_2_6 5)))
 (let (($x51 (= p_3_2_4 5)))
 (let (($x1352 (= p_2_10_2 5)))
 (let (($x1595 (= p_1_9_2 5)))
 ((_ at-most 2) $x1595 $x1352 $x51 $x103 $x4038 $x2596 $x4019 $x2031 $x4004)))))))))))
(assert
 (let (($x2020 (= p_9_3_6 1)))
 (let (($x4013 (= p_8_3_4 1)))
 (let (($x2594 (= p_7_2_3 1)))
 (let (($x4032 (= p_6_9_3 1)))
 (let (($x2095 (= p_5_3_7 1)))
 (let (($x109 (= p_4_3_5 1)))
 (let (($x10 (= p_3_10_3 1)))
 (let (($x1597 (= p_2_1_3 1)))
 (let (($x1608 (= p_1_8_3 1)))
 ((_ at-most 2) $x1608 $x1597 $x10 $x109 $x2095 $x4032 $x2594 $x4013 $x2020)))))))))))
(assert
 (let (($x3019 (= p_9_3_6 2)))
 (let (($x2765 (= p_8_3_4 2)))
 (let (($x3052 (= p_7_2_3 2)))
 (let (($x2812 (= p_6_9_3 2)))
 (let (($x2097 (= p_5_3_7 2)))
 (let (($x181 (= p_4_3_5 2)))
 (let (($x170 (= p_3_10_3 2)))
 (let (($x1135 (= p_2_1_3 2)))
 (let (($x1612 (= p_1_8_3 2)))
 ((_ at-most 2) $x1612 $x1135 $x170 $x181 $x2097 $x2812 $x3052 $x2765 $x3019)))))))))))
(assert
 (let (($x3136 (= p_9_3_6 3)))
 (let (($x4009 (= p_8_3_4 3)))
 (let (($x3447 (= p_7_2_3 3)))
 (let (($x4026 (= p_6_9_3 3)))
 (let (($x2954 (= p_5_3_7 3)))
 (let (($x187 (= p_4_3_5 3)))
 (let (($x117 (= p_3_10_3 3)))
 (let (($x1154 (= p_2_1_3 3)))
 (let (($x1223 (= p_1_8_3 3)))
 ((_ at-most 2) $x1223 $x1154 $x117 $x187 $x2954 $x4026 $x3447 $x4009 $x3136)))))))))))
(assert
 (let (($x2868 (= p_9_3_6 4)))
 (let (($x2029 (= p_8_3_4 4)))
 (let (($x2899 (= p_7_2_3 4)))
 (let (($x2049 (= p_6_9_3 4)))
 (let (($x3468 (= p_5_3_7 4)))
 (let (($x163 (= p_4_3_5 4)))
 (let (($x114 (= p_3_10_3 4)))
 (let (($x1108 (= p_2_1_3 4)))
 (let (($x1615 (= p_1_8_3 4)))
 ((_ at-most 2) $x1615 $x1108 $x114 $x163 $x3468 $x2049 $x2899 $x2029 $x2868)))))))))))
(assert
 (let (($x4003 (= p_9_3_6 5)))
 (let (($x2578 (= p_8_3_4 5)))
 (let (($x4019 (= p_7_2_3 5)))
 (let (($x2077 (= p_6_9_3 5)))
 (let (($x4039 (= p_5_3_7 5)))
 (let (($x24 (= p_4_3_5 5)))
 (let (($x112 (= p_3_10_3 5)))
 (let (($x1285 (= p_2_1_3 5)))
 (let (($x1624 (= p_1_8_3 5)))
 ((_ at-most 2) $x1624 $x1285 $x112 $x24 $x4039 $x2077 $x4019 $x2578 $x4003)))))))))))
(assert
 (let (($x2576 (= p_9_4_5 1)))
 (let (($x4013 (= p_8_3_4 1)))
 (let (($x2066 (= p_7_1_4 1)))
 (let (($x4033 (= p_6_4_8 1)))
 (let (($x2117 (= p_5_4_6 1)))
 (let (($x150 (= p_4_10_4 1)))
 (let (($x45 (= p_3_2_4 1)))
 (let (($x1598 (= p_2_9_4 1)))
 (let (($x1589 (= p_1_4_7 1)))
 ((_ at-most 2) $x1589 $x1598 $x45 $x150 $x2117 $x4033 $x2066 $x4013 $x2576)))))))))))
(assert
 (let (($x3017 (= p_9_4_5 2)))
 (let (($x2765 (= p_8_3_4 2)))
 (let (($x3054 (= p_7_1_4 2)))
 (let (($x2814 (= p_6_4_8 2)))
 (let (($x2615 (= p_5_4_6 2)))
 (let (($x65 (= p_4_10_4 2)))
 (let (($x177 (= p_3_2_4 2)))
 (let (($x1603 (= p_2_9_4 2)))
 (let (($x1591 (= p_1_4_7 2)))
 ((_ at-most 2) $x1591 $x1603 $x177 $x65 $x2615 $x2814 $x3054 $x2765 $x3017)))))))))))
(assert
 (let (($x3412 (= p_9_4_5 3)))
 (let (($x4009 (= p_8_3_4 3)))
 (let (($x3187 (= p_7_1_4 3)))
 (let (($x4027 (= p_6_4_8 3)))
 (let (($x2951 (= p_5_4_6 3)))
 (let (($x193 (= p_4_10_4 3)))
 (let (($x102 (= p_3_2_4 3)))
 (let (($x718 (= p_2_9_4 3)))
 (let (($x29 (= p_1_4_7 3)))
 ((_ at-most 2) $x29 $x718 $x102 $x193 $x2951 $x4027 $x3187 $x4009 $x3412)))))))))))
(assert
 (let (($x2871 (= p_9_4_5 4)))
 (let (($x2029 (= p_8_3_4 4)))
 (let (($x2896 (= p_7_1_4 4)))
 (let (($x2071 (= p_6_4_8 4)))
 (let (($x3465 (= p_5_4_6 4)))
 (let (($x144 (= p_4_10_4 4)))
 (let (($x190 (= p_3_2_4 4)))
 (let (($x1630 (= p_2_9_4 4)))
 (let (($x1594 (= p_1_4_7 4)))
 ((_ at-most 2) $x1594 $x1630 $x190 $x144 $x3465 $x2071 $x2896 $x2029 $x2871)))))))))))
(assert
 (let (($x4002 (= p_9_4_5 5)))
 (let (($x2578 (= p_8_3_4 5)))
 (let (($x4020 (= p_7_1_4 5)))
 (let (($x2050 (= p_6_4_8 5)))
 (let (($x4040 (= p_5_4_6 5)))
 (let (($x175 (= p_4_10_4 5)))
 (let (($x51 (= p_3_2_4 5)))
 (let (($x1145 (= p_2_9_4 5)))
 (let (($x1596 (= p_1_4_7 5)))
 ((_ at-most 2) $x1596 $x1145 $x51 $x175 $x4040 $x2050 $x4020 $x2578 $x4002)))))))))))
(assert
 (let (($x2576 (= p_9_4_5 1)))
 (let (($x4014 (= p_8_2_5 1)))
 (let (($x2595 (= p_7_5_9 1)))
 (let (($x4034 (= p_6_5_7 1)))
 (let (($x2086 (= p_5_10_5 1)))
 (let (($x109 (= p_4_3_5 1)))
 (let (($x39 (= p_3_1_5 1)))
 (let (($x1599 (= p_2_5_8 1)))
 (let (($x660 (= p_1_5_6 1)))
 ((_ at-most 2) $x660 $x1599 $x39 $x109 $x2086 $x4034 $x2595 $x4014 $x2576)))))))))))
(assert
 (let (($x3017 (= p_9_4_5 2)))
 (let (($x2767 (= p_8_2_5 2)))
 (let (($x3051 (= p_7_5_9 2)))
 (let (($x4028 (= p_6_5_7 2)))
 (let (($x2113 (= p_5_10_5 2)))
 (let (($x181 (= p_4_3_5 2)))
 (let (($x79 (= p_3_1_5 2)))
 (let (($x1607 (= p_2_5_8 2)))
 (let (($x1286 (= p_1_5_6 2)))
 ((_ at-most 2) $x1286 $x1607 $x79 $x181 $x2113 $x4028 $x3051 $x2767 $x3017)))))))))))
(assert
 (let (($x3412 (= p_9_4_5 3)))
 (let (($x3296 (= p_8_2_5 3)))
 (let (($x3184 (= p_7_5_9 3)))
 (let (($x3330 (= p_6_5_7 3)))
 (let (($x2953 (= p_5_10_5 3)))
 (let (($x187 (= p_4_3_5 3)))
 (let (($x116 (= p_3_1_5 3)))
 (let (($x1623 (= p_2_5_8 3)))
 (let (($x1225 (= p_1_5_6 3)))
 ((_ at-most 2) $x1225 $x1623 $x116 $x187 $x2953 $x3330 $x3184 $x3296 $x3412)))))))))))
(assert
 (let (($x2871 (= p_9_4_5 4)))
 (let (($x2003 (= p_8_2_5 4)))
 (let (($x4023 (= p_7_5_9 4)))
 (let (($x2040 (= p_6_5_7 4)))
 (let (($x3467 (= p_5_10_5 4)))
 (let (($x163 (= p_4_3_5 4)))
 (let (($x197 (= p_3_1_5 4)))
 (let (($x1635 (= p_2_5_8 4)))
 (let (($x12 (= p_1_5_6 4)))
 ((_ at-most 2) $x12 $x1635 $x197 $x163 $x3467 $x2040 $x4023 $x2003 $x2871)))))))))))
(assert
 (let (($x4002 (= p_9_4_5 5)))
 (let (($x2031 (= p_8_2_5 5)))
 (let (($x4021 (= p_7_5_9 5)))
 (let (($x2069 (= p_6_5_7 5)))
 (let (($x3066 (= p_5_10_5 5)))
 (let (($x24 (= p_4_3_5 5)))
 (let (($x174 (= p_3_1_5 5)))
 (let (($x9 (= p_2_5_8 5)))
 (let (($x1333 (= p_1_5_6 5)))
 ((_ at-most 2) $x1333 $x9 $x174 $x24 $x3066 $x2069 $x4021 $x2031 $x4002)))))))))))
(assert
 (let (($x2020 (= p_9_3_6 1)))
 (let (($x4015 (= p_8_6_1 1)))
 (let (($x2051 (= p_7_6_8 1)))
 (let (($x4035 (= p_6_6_10 1)))
 (let (($x2117 (= p_5_4_6 1)))
 (let (($x151 (= p_4_2_6 1)))
 (let (($x20 (= p_3_6_9 1)))
 (let (($x1600 (= p_2_6_7 1)))
 (let (($x660 (= p_1_5_6 1)))
 ((_ at-most 2) $x660 $x1600 $x20 $x151 $x2117 $x4035 $x2051 $x4015 $x2020)))))))))))
(assert
 (let (($x3019 (= p_9_3_6 2)))
 (let (($x2764 (= p_8_6_1 2)))
 (let (($x2591 (= p_7_6_8 2)))
 (let (($x4029 (= p_6_6_10 2)))
 (let (($x2615 (= p_5_4_6 2)))
 (let (($x18 (= p_4_2_6 2)))
 (let (($x52 (= p_3_6_9 2)))
 (let (($x1611 (= p_2_6_7 2)))
 (let (($x1286 (= p_1_5_6 2)))
 ((_ at-most 2) $x1286 $x1611 $x52 $x18 $x2615 $x4029 $x2591 $x2764 $x3019)))))))))))
(assert
 (let (($x3136 (= p_9_3_6 3)))
 (let (($x3293 (= p_8_6_1 3)))
 (let (($x3186 (= p_7_6_8 3)))
 (let (($x3327 (= p_6_6_10 3)))
 (let (($x2951 (= p_5_4_6 3)))
 (let (($x15 (= p_4_2_6 3)))
 (let (($x157 (= p_3_6_9 3)))
 (let (($x1627 (= p_2_6_7 3)))
 (let (($x1225 (= p_1_5_6 3)))
 ((_ at-most 2) $x1225 $x1627 $x157 $x15 $x2951 $x3327 $x3186 $x3293 $x3136)))))))))))
(assert
 (let (($x2868 (= p_9_3_6 4)))
 (let (($x2025 (= p_8_6_1 4)))
 (let (($x3451 (= p_7_6_8 4)))
 (let (($x2039 (= p_6_6_10 4)))
 (let (($x3465 (= p_5_4_6 4)))
 (let (($x21 (= p_4_2_6 4)))
 (let (($x113 (= p_3_6_9 4)))
 (let (($x1639 (= p_2_6_7 4)))
 (let (($x12 (= p_1_5_6 4)))
 ((_ at-most 2) $x12 $x1639 $x113 $x21 $x3465 $x2039 $x3451 $x2025 $x2868)))))))))))
(assert
 (let (($x4003 (= p_9_3_6 5)))
 (let (($x2004 (= p_8_6_1 5)))
 (let (($x4022 (= p_7_6_8 5)))
 (let (($x1993 (= p_6_6_10 5)))
 (let (($x4040 (= p_5_4_6 5)))
 (let (($x103 (= p_4_2_6 5)))
 (let (($x111 (= p_3_6_9 5)))
 (let (($x37 (= p_2_6_7 5)))
 (let (($x1333 (= p_1_5_6 5)))
 ((_ at-most 2) $x1333 $x37 $x111 $x103 $x4040 $x1993 $x4022 $x2004 $x4003)))))))))))
(assert
 (let (($x2577 (= p_9_7_2 1)))
 (let (($x4016 (= p_8_7_9 1)))
 (let (($x2597 (= p_7_7_10 1)))
 (let (($x4034 (= p_6_5_7 1)))
 (let (($x2095 (= p_5_3_7 1)))
 (let (($x143 (= p_4_7_1 1)))
 (let (($x154 (= p_3_7_8 1)))
 (let (($x1600 (= p_2_6_7 1)))
 (let (($x1589 (= p_1_4_7 1)))
 ((_ at-most 2) $x1589 $x1600 $x154 $x143 $x2095 $x4034 $x2597 $x4016 $x2577)))))))))))
(assert
 (let (($x3016 (= p_9_7_2 2)))
 (let (($x4010 (= p_8_7_9 2)))
 (let (($x2592 (= p_7_7_10 2)))
 (let (($x4028 (= p_6_5_7 2)))
 (let (($x2097 (= p_5_3_7 2)))
 (let (($x106 (= p_4_7_1 2)))
 (let (($x110 (= p_3_7_8 2)))
 (let (($x1611 (= p_2_6_7 2)))
 (let (($x1591 (= p_1_4_7 2)))
 ((_ at-most 2) $x1591 $x1611 $x110 $x106 $x2097 $x4028 $x2592 $x4010 $x3016)))))))))))
(assert
 (let (($x3133 (= p_9_7_2 3)))
 (let (($x3295 (= p_8_7_9 3)))
 (let (($x3183 (= p_7_7_10 3)))
 (let (($x3330 (= p_6_5_7 3)))
 (let (($x2954 (= p_5_3_7 3)))
 (let (($x148 (= p_4_7_1 3)))
 (let (($x115 (= p_3_7_8 3)))
 (let (($x1627 (= p_2_6_7 3)))
 (let (($x29 (= p_1_4_7 3)))
 ((_ at-most 2) $x29 $x1627 $x115 $x148 $x2954 $x3330 $x3183 $x3295 $x3133)))))))))))
(assert
 (let (($x4006 (= p_9_7_2 4)))
 (let (($x1994 (= p_8_7_9 4)))
 (let (($x3448 (= p_7_7_10 4)))
 (let (($x2040 (= p_6_5_7 4)))
 (let (($x3468 (= p_5_3_7 4)))
 (let (($x104 (= p_4_7_1 4)))
 (let (($x86 (= p_3_7_8 4)))
 (let (($x1639 (= p_2_6_7 4)))
 (let (($x1594 (= p_1_4_7 4)))
 ((_ at-most 2) $x1594 $x1639 $x86 $x104 $x3468 $x2040 $x3448 $x1994 $x4006)))))))))))
(assert
 (let (($x4004 (= p_9_7_2 5)))
 (let (($x2023 (= p_8_7_9 5)))
 (let (($x2900 (= p_7_7_10 5)))
 (let (($x2069 (= p_6_5_7 5)))
 (let (($x4039 (= p_5_3_7 5)))
 (let (($x191 (= p_4_7_1 5)))
 (let (($x101 (= p_3_7_8 5)))
 (let (($x37 (= p_2_6_7 5)))
 (let (($x1596 (= p_1_4_7 5)))
 ((_ at-most 2) $x1596 $x37 $x101 $x191 $x4039 $x2069 $x2900 $x2023 $x4004)))))))))))
(assert
 (let (($x2005 (= p_9_8_1 1)))
 (let (($x4017 (= p_8_8_10 1)))
 (let (($x2051 (= p_7_6_8 1)))
 (let (($x4033 (= p_6_4_8 1)))
 (let (($x2121 (= p_5_8_2 1)))
 (let (($x28 (= p_4_8_9 1)))
 (let (($x154 (= p_3_7_8 1)))
 (let (($x1599 (= p_2_5_8 1)))
 (let (($x1608 (= p_1_8_3 1)))
 ((_ at-most 2) $x1608 $x1599 $x154 $x28 $x2121 $x4033 $x2051 $x4017 $x2005)))))))))))
(assert
 (let (($x2573 (= p_9_8_1 2)))
 (let (($x4011 (= p_8_8_10 2)))
 (let (($x2591 (= p_7_6_8 2)))
 (let (($x2814 (= p_6_4_8 2)))
 (let (($x2087 (= p_5_8_2 2)))
 (let (($x123 (= p_4_8_9 2)))
 (let (($x110 (= p_3_7_8 2)))
 (let (($x1607 (= p_2_5_8 2)))
 (let (($x1612 (= p_1_8_3 2)))
 ((_ at-most 2) $x1612 $x1607 $x110 $x123 $x2087 $x2814 $x2591 $x4011 $x2573)))))))))))
(assert
 (let (($x3135 (= p_9_8_1 3)))
 (let (($x3292 (= p_8_8_10 3)))
 (let (($x3186 (= p_7_6_8 3)))
 (let (($x4027 (= p_6_4_8 3)))
 (let (($x3217 (= p_5_8_2 3)))
 (let (($x105 (= p_4_8_9 3)))
 (let (($x115 (= p_3_7_8 3)))
 (let (($x1623 (= p_2_5_8 3)))
 (let (($x1223 (= p_1_8_3 3)))
 ((_ at-most 2) $x1223 $x1623 $x115 $x105 $x3217 $x4027 $x3186 $x3292 $x3135)))))))))))
(assert
 (let (($x3416 (= p_9_8_1 4)))
 (let (($x4007 (= p_8_8_10 4)))
 (let (($x3451 (= p_7_6_8 4)))
 (let (($x2071 (= p_6_4_8 4)))
 (let (($x4041 (= p_5_8_2 4)))
 (let (($x168 (= p_4_8_9 4)))
 (let (($x86 (= p_3_7_8 4)))
 (let (($x1635 (= p_2_5_8 4)))
 (let (($x1615 (= p_1_8_3 4)))
 ((_ at-most 2) $x1615 $x1635 $x86 $x168 $x4041 $x2071 $x3451 $x4007 $x3416)))))))))))
(assert
 (let (($x4005 (= p_9_8_1 5)))
 (let (($x1947 (= p_8_8_10 5)))
 (let (($x4022 (= p_7_6_8 5)))
 (let (($x2050 (= p_6_4_8 5)))
 (let (($x4038 (= p_5_8_2 5)))
 (let (($x198 (= p_4_8_9 5)))
 (let (($x101 (= p_3_7_8 5)))
 (let (($x9 (= p_2_5_8 5)))
 (let (($x1624 (= p_1_8_3 5)))
 ((_ at-most 2) $x1624 $x9 $x101 $x198 $x4038 $x2050 $x4022 $x1947 $x4005)))))))))))
(assert
 (let (($x2579 (= p_9_9_10 1)))
 (let (($x4016 (= p_8_7_9 1)))
 (let (($x2595 (= p_7_5_9 1)))
 (let (($x4032 (= p_6_9_3 1)))
 (let (($x2617 (= p_5_9_1 1)))
 (let (($x28 (= p_4_8_9 1)))
 (let (($x20 (= p_3_6_9 1)))
 (let (($x1598 (= p_2_9_4 1)))
 (let (($x1616 (= p_1_9_2 1)))
 ((_ at-most 2) $x1616 $x1598 $x20 $x28 $x2617 $x4032 $x2595 $x4016 $x2579)))))))))))
(assert
 (let (($x2574 (= p_9_9_10 2)))
 (let (($x4010 (= p_8_7_9 2)))
 (let (($x3051 (= p_7_5_9 2)))
 (let (($x2812 (= p_6_9_3 2)))
 (let (($x2611 (= p_5_9_1 2)))
 (let (($x123 (= p_4_8_9 2)))
 (let (($x52 (= p_3_6_9 2)))
 (let (($x1603 (= p_2_9_4 2)))
 (let (($x91 (= p_1_9_2 2)))
 ((_ at-most 2) $x91 $x1603 $x52 $x123 $x2611 $x2812 $x3051 $x4010 $x2574)))))))))))
(assert
 (let (($x3132 (= p_9_9_10 3)))
 (let (($x3295 (= p_8_7_9 3)))
 (let (($x3184 (= p_7_5_9 3)))
 (let (($x4026 (= p_6_9_3 3)))
 (let (($x3215 (= p_5_9_1 3)))
 (let (($x105 (= p_4_8_9 3)))
 (let (($x157 (= p_3_6_9 3)))
 (let (($x718 (= p_2_9_4 3)))
 (let (($x1592 (= p_1_9_2 3)))
 ((_ at-most 2) $x1592 $x718 $x157 $x105 $x3215 $x4026 $x3184 $x3295 $x3132)))))))))))
(assert
 (let (($x3413 (= p_9_9_10 4)))
 (let (($x1994 (= p_8_7_9 4)))
 (let (($x4023 (= p_7_5_9 4)))
 (let (($x2049 (= p_6_9_3 4)))
 (let (($x3065 (= p_5_9_1 4)))
 (let (($x168 (= p_4_8_9 4)))
 (let (($x113 (= p_3_6_9 4)))
 (let (($x1630 (= p_2_9_4 4)))
 (let (($x1604 (= p_1_9_2 4)))
 ((_ at-most 2) $x1604 $x1630 $x113 $x168 $x3065 $x2049 $x4023 $x1994 $x3413)))))))))))
(assert
 (let (($x2872 (= p_9_9_10 5)))
 (let (($x2023 (= p_8_7_9 5)))
 (let (($x4021 (= p_7_5_9 5)))
 (let (($x2077 (= p_6_9_3 5)))
 (let (($x4037 (= p_5_9_1 5)))
 (let (($x198 (= p_4_8_9 5)))
 (let (($x111 (= p_3_6_9 5)))
 (let (($x1145 (= p_2_9_4 5)))
 (let (($x1595 (= p_1_9_2 5)))
 ((_ at-most 2) $x1595 $x1145 $x111 $x198 $x4037 $x2077 $x4021 $x2023 $x2872)))))))))))
(assert
 (let (($x2579 (= p_9_9_10 1)))
 (let (($x4017 (= p_8_8_10 1)))
 (let (($x2597 (= p_7_7_10 1)))
 (let (($x4035 (= p_6_6_10 1)))
 (let (($x2086 (= p_5_10_5 1)))
 (let (($x150 (= p_4_10_4 1)))
 (let (($x10 (= p_3_10_3 1)))
 (let (($x1249 (= p_2_10_2 1)))
 (let (($x1216 (= p_1_10_1 1)))
 ((_ at-most 2) $x1216 $x1249 $x10 $x150 $x2086 $x4035 $x2597 $x4017 $x2579)))))))))))
(assert
 (let (($x2574 (= p_9_9_10 2)))
 (let (($x4011 (= p_8_8_10 2)))
 (let (($x2592 (= p_7_7_10 2)))
 (let (($x4029 (= p_6_6_10 2)))
 (let (($x2113 (= p_5_10_5 2)))
 (let (($x65 (= p_4_10_4 2)))
 (let (($x170 (= p_3_10_3 2)))
 (let (($x1276 (= p_2_10_2 2)))
 (let (($x7 (= p_1_10_1 2)))
 ((_ at-most 2) $x7 $x1276 $x170 $x65 $x2113 $x4029 $x2592 $x4011 $x2574)))))))))))
(assert
 (let (($x3132 (= p_9_9_10 3)))
 (let (($x3292 (= p_8_8_10 3)))
 (let (($x3183 (= p_7_7_10 3)))
 (let (($x3327 (= p_6_6_10 3)))
 (let (($x2953 (= p_5_10_5 3)))
 (let (($x193 (= p_4_10_4 3)))
 (let (($x117 (= p_3_10_3 3)))
 (let (($x1226 (= p_2_10_2 3)))
 (let (($x1614 (= p_1_10_1 3)))
 ((_ at-most 2) $x1614 $x1226 $x117 $x193 $x2953 $x3327 $x3183 $x3292 $x3132)))))))))))
(assert
 (let (($x3413 (= p_9_9_10 4)))
 (let (($x4007 (= p_8_8_10 4)))
 (let (($x3448 (= p_7_7_10 4)))
 (let (($x2039 (= p_6_6_10 4)))
 (let (($x3467 (= p_5_10_5 4)))
 (let (($x144 (= p_4_10_4 4)))
 (let (($x114 (= p_3_10_3 4)))
 (let (($x1180 (= p_2_10_2 4)))
 (let (($x32 (= p_1_10_1 4)))
 ((_ at-most 2) $x32 $x1180 $x114 $x144 $x3467 $x2039 $x3448 $x4007 $x3413)))))))))))
(assert
 (let (($x2872 (= p_9_9_10 5)))
(let (($x1947 (= p_8_8_10 5)))
(let (($x2900 (= p_7_7_10 5)))
(let (($x1993 (= p_6_6_10 5)))
(let (($x3066 (= p_5_10_5 5)))
(let (($x175 (= p_4_10_4 5)))
(let (($x112 (= p_3_10_3 5)))
(let (($x1352 (= p_2_10_2 5)))
(let (($x1590 (= p_1_10_1 5)))
((_ at-most 2) $x1590 $x1352 $x112 $x175 $x3066 $x1993 $x2900 $x1947 $x2872)))))))))))
(check-sat)
